teste.txt
48 120
2 56 49
3 88 5 24
2 99 102
2 33 100
3 78 14 64
2 35 20
3 96 25 45
3 92 37 41
3 69 76 58
3 108 52 11
2 32 101
3 21 28 71
1 68
3 115 95 93
2 61 38
1 12
3 114 111 106
3 17 87 50
2 90 107
2 66 29
3 40 103 119
3 16 75 60
2 57 79
2 89 47
3 85 117 110
2 2 98
3 118 1 34
3 73 48 54
2 18 120
3 70 72 77
2 27 51
2 74 104
2 42 113
3 13 46 4
4 8 15 63 6
2 10 30
3 83 39 109
2 55 116
3 44 3 86
2 67 22
3 62 26 112
2 105 36
3 9 84 59
2 65 97
2 19 91
3 31 81 23
3 94 7 82
3 80 53 43